sat
(:binary-propagations  1009
 :decisions            1995
 :del-clause           189
 :final-checks         13
 :max-generation       1
 :max-memory           25.13
 :memory               21.59
 :mk-bool-var          1177
 :mk-clause            322
 :mk-clause-binary     786
 :num-allocs           41648353
 :num-checks           1
 :propagations         1442
 :quant-instantiations 191
 :restarts             12
 :rlimit-count         777070
 :time                 0.11)
